COMUNI = {
	spoleto,
	todi,
	magione,
	foligno,
	castiglione_del_lago,
	san_giustino,
	amelia,
	gubbio,
};

NUMERO_COMUNI = 8;

ABITANTI_PER_COMUNE = [36, 15, 14, 55, 15, 11, 11, 30];

STRADE_TRA_COMUNI = [|
	false, false, false, false, false, false, false, false |
	false, false, false, false, false, false, true, false |
	false, false, false, false, true, false, false, false |
	false, false, false, false, false, false, false, false |
	false, false, true, false, false, false, false, false |
	false, false, false, false, false, false, false, false |
	false, true, false, false, false, false, false, false |
	false, false, false, false, false, false, false, false |
|];

RICHIESTE = [|
	23, 14, 6, 11, 0 |
	3, 28, 32, 26, 2 |
	7, 18, 81, 14, 14 |
	36, 36, 0, 69, 136 |
	26, 53, 44, 37, 3 |
	0, 33, 3, 22, 18 |
	22, 0, 1, 10, 24 |
	52, 65, 2, 0, 7 |
|];
